"#MAPSIZE",50,10
"#TILESONLY"
6
0
0
6
0
0
6
4
1
6
0
0
6
0
0
6
0
0
6
0
0
6
0
0
6
0
0
6
0
0
6
0
0
6
0
0
6
4
1
6
0
0
6
0
0
6
0
0
6
0
0
6
0
0
6
0
0
6
0
0
6
0
0
6
0
0
6
4
1
6
0
0
6
0
0
6
0
0
6
0
0
6
0
0
6
0
0
6
0
0
6
0
0
6
0
0
6
4
1
6
0
0
6
0
0
6
0
0
6
0
0
6
0
0
6
0
0
6
0
0
6
0
0
6
0
0
6
4
1
6
0
0
6
0
0
6
0
0
6
0
0
6
0
0
6
0
0
6
0
0
6
0
0
6
0
0
6
4
1
6
0
0
6
0
0
6
0
0
6
0
0
6
0
0
6
0
0
6
0
0
6
0
0
6
0
0
6
4
1
6
0
0
6
0
0
6
0
0
6
0
0
6
0
0
6
0
0
6
0
0
6
0
0
6
0
0
6
4
1
6
0
0
6
0
0
6
0
0
6
0
0
6
0
0
6
0
0
6
0
0
6
0
0
6
0
0
6
4
1
6
0
0
6
0
0
6
0
0
6
0
0
6
0
0
6
0
0
6
0
0
6
0
0
6
0
0
6
4
1
6
0
0
6
0
0
6
0
0
6
0
0
6
0
0
6
0
0
6
0
0
6
0
0
6
0
0
6
0
0
6
0
0
6
0
0
6
0
0
6
0
0
6
0
0
6
0
0
6
0
0
6
0
0
6
0
0
6
0
0
6
0
0
6
0
0
6
0
0
6
0
0
6
0
0
6
0
0
6
0
0
6
0
0
6
0
0
6
0
0
6
0
0
6
0
0
6
0
0
6
0
0
6
0
0
6
0
0
6
0
0
6
0
0
6
0
0
6
0
0
6
0
0
6
0
0
6
0
0
6
0
0
6
0
0
6
0
0
6
0
0
6
0
0
6
0
0
6
0
0
6
0
0
6
0
0
6
0
0
6
0
0
6
0
0
6
0
0
6
0
0
6
0
0
6
0
0
6
0
0
6
0
0
6
0
0
6
0
0
6
0
0
6
0
0
6
0
0
6
0
0
6
0
0
6
0
0
6
0
0
6
0
0
6
0
0
6
0
0
6
0
0
6
0
0
6
0
0
6
0
0
6
0
0
6
0
0
6
0
0
6
0
0
6
0
0
6
0
0
6
0
0
6
0
0
6
0
0
6
0
0
6
0
0
6
0
0
6
0
0
6
0
0
6
0
0
6
0
0
6
0
0
6
0
0
6
0
0
6
0
0
6
0
0
6
0
0
6
0
0
6
0
0
6
0
0
6
0
0
6
0
0
6
0
0
6
0
0
6
0
0
6
0
0
6
0
0
6
0
0
6
0
0
6
0
0
6
0
0
6
0
0
6
0
0
6
0
0
6
0
0
6
0
0
6
0
0
6
0
0
6
0
0
6
0
0
6
0
0
6
0
0
6
0
0
6
0
0
6
0
0
6
0
0
6
0
0
6
0
0
6
0
0
6
0
0
6
0
0
6
0
0
6
0
0
6
0
0
6
0
0
6
0
0
6
0
0
6
0
0
6
0
0
6
0
0
6
0
0
6
0
0
6
0
0
6
0
0
6
0
0
6
0
0
6
0
0
6
0
0
6
0
0
6
0
0
6
0
0
6
0
0
6
0
0
6
0
0
6
0
0
6
0
0
6
0
0
6
0
0
6
0
0
6
0
0
6
0
0
6
0
0
6
0
0
6
0
0
6
0
0
6
0
0
6
0
0
6
0
0
6
0
0
6
0
0
6
0
0
6
0
0
6
0
0
6
0
0
6
0
0
6
0
0
6
0
0
6
0
0
6
0
0
6
0
0
6
0
0
6
0
0
6
0
0
6
0
0
6
0
0
6
0
0
6
0
0
6
0
0
6
0
0
6
0
0
6
0
0
6
0
0
6
0
0
6
0
0
6
0
0
6
0
0
6
0
0
6
0
0
6
0
0
6
0
0
6
0
0
6
0
0
6
0
0
6
0
0
6
0
0
6
0
0
6
0
0
6
0
0
6
0
0
6
0
0
6
0
0
6
0
0
6
0
0
6
0
0
6
0
0
6
0
0
6
0
0
6
0
0
6
0
0
6
0
0
6
0
0
6
0
0
6
0
0
6
0
0
6
0
0
6
0
0
6
0
0
6
0
0
6
0
0
6
0
0
6
0
0
6
0
0
6
0
0
6
0
0
6
0
0
6
0
0
6
0
0
6
0
0
6
0
0
6
0
0
6
0
0
6
0
0
6
0
0
6
0
0
6
0
0
6
0
0
6
0
0
6
0
0
6
0
0
6
0
0
6
0
0
6
0
0
6
0
0
6
0
0
6
0
0
6
0
0
6
0
0
6
0
0
6
0
0
6
0
0
6
0
0
6
0
0
6
0
0
6
0
0
6
0
0
6
0
0
6
0
0
6
0
0
6
0
0
6
0
0
6
0
0
6
0
0
6
0
0
6
0
0
6
0
0
6
0
0
6
0
0
6
0
0
6
0
0
6
0
0
6
0
0
6
0
0
6
0
0
6
0
0
6
0
0
6
0
0
6
0
0
6
0
0
6
0
0
6
0
0
6
0
0
6
0
0
6
0
0
6
0
0
6
0
0
6
0
0
6
0
0
6
0
0
6
0
0
6
0
0
6
0
0
6
0
0
6
0
0
6
0
0
6
0
0
6
0
0
6
0
0
6
0
0
6
0
0
6
0
0
6
0
0
6
0
0
6
0
0
6
0
0
6
0
0
6
0
0
6
0
0
6
0
0
6
0
0
6
0
0
6
0
0
6
0
0
6
0
0
6
0
0
6
0
0
6
0
0
6
0
0
6
0
0
6
0
0
6
0
0
6
0
0
6
0
0
6
0
0
6
0
0
6
0
0
6
0
0
6
0
0
6
0
0
6
0
0
6
0
0
6
0
0
6
0
0
6
0
0
6
0
0
6
0
0
6
0
0
6
0
0
6
0
0
6
0
0
6
0
0
6
0
0
6
0
0
6
0
0
6
0
0
6
0
0
6
0
0
6
0
0
6
0
0
6
0
0
6
0
0
6
0
0
6
0
0
6
0
0
6
0
0
6
0
0
6
0
0
6
0
0
6
0
0
6
0
0
6
0
0
6
0
0
6
0
0
6
0
0
6
0
0
6
0
0
6
0
0
6
0
0
6
0
0
6
0
0
6
0
0
6
0
0
6
0
0
6
0
0
6
0
0
6
0
0
6
0
0
6
0
0
6
0
0
6
0
0
6
0
0
6
0
0
6
0
0
6
0
0
6
0
0
6
0
0
6
0
0
6
0
0
6
0
0
6
0
0
6
0
0
6
0
0
6
0
0
6
0
0
6
0
0
6
0
0
